1 -310 -314 0
-310 -313 -314 0
-16 310 -314 0
15 107 -311 16 -314 0
1 110 -11 16 0
298 159 5 6 -1 -11 0
-313 -314 0
d -310 -313 -314 0
310 -314 0
d -16 310 -314 0
-310 -314 0
d 1 -310 -314 0
-314 0
15 -16 0
-16 0
15 0
-1 0
-295 0
300 0
30 0
2 0
309 0
281 0
-20 0
-310 0
-35 0
-282 0
-48 0
-248 0
-276 0
-267 0
-63 0
-29 0
34 0
6 0
11 0
296 0
49 0
21 0
268 0
62 0
262 0
234 0
290 0
253 0
77 0
10 0
43 0
-67 0
-238 0
-111 0
-39 0
-115 0
-191 0
-210 0
-286 0
-119 0
-120 0
-124 0
-139 0
-143 0
-152 0
-171 0
-125 0
-144 0
-153 0
-172 0
-187 0
-200 0
-215 0
-291 0
-219 0
110 0
-96 0
0
